NAME: small12
TYPE: TSP
COMMENT: Test dataset with 12 cities (circle pattern)
DIMENSION: 12
EDGE_WEIGHT_TYPE: EUC_2D
NODE_COORD_SECTION
1 111.408568 50.000000
2 93.414793 75.065543
3 70.905658 86.209663
4 50.000000 105.697607
5 22.411798 97.784168
6 0.369708 78.654062
7 3.270831 50.000000
8 9.204441 26.446673
9 26.026924 8.477414
10 50.000000 6.178453
11 72.422863 11.162462
12 97.892462 22.349274
EOF
